
# 3d Lennard-Jones gas
units lj
dimension 3
boundary p p p
atom_style atomic
timestep 0.005

# Set lattice size
variable b      equal 5.72  # unit cell length [Å]
variable sigma  equal 3.4   # scaling factor [Å]
variable N_cell equal 4     # Number of atoms pr unit cell
variable L      equal 20    # Length of lattice [unit cells]

# Temperature
variable equil_temp equal 0.851
variable run_temp equal 1.5


variable rho equal ${N_cell}/(${b}/${sigma})^3
lattice fcc ${rho}
region simbox block 0 ${L} 0 ${L} 0 ${L}
create_box 1 simbox
create_atoms 1 box

mass 1 1.0
velocity all create ${equil_temp} 87287
pair_style lj/cut 3.0
pair_coeff 1 1 1.0 1.0 3.0
fix 1 all nve


# Stabilize
thermo 100
run 500

#Cylinder and output settings
variable cylinder_radius equal 12
variable nbins equal 100

# Create pores
variable L_sigma equal ${L}*${b}/${sigma}
variable center_coords equal ${L_sigma}/2
region r_free cylinder x ${center_coords} ${center_coords} ${cylinder_radius} 0 EDGE units box

group g_free region r_free
group g_locked subtract all g_free

variable phi equal count(g_locked)/count(all)
print "Estimated phi = ${phi}"

# Reduce density of free atoms
variable frac equal 0.5
delete_atoms porosity r_free ${frac} 7652567

fix 1 g_free nve
fix f_x g_free addforce 0.1 0 0


variable delta equal ${L_sigma}+1e-13
compute radial_chunk all chunk/atom bin/cylinder x lower ${delta} ${center_coords} ${center_coords} 0 ${cylinder_radius} ${nbins} nchunk every units box
fix radial_output g_free ave/chunk 10 10 100 radial_chunk vx file radial_vel.txt

#dump 1 all custom 10 nano_porous_lj.data id type x y z vx vy vz

thermo 100
run 100000
