# 3d Lennard-Jones gas
units lj
dimension 3
boundary p p p
atom_style atomic

include f_run_settings.in

lattice fcc 0.8
region simbox block 0 10 0 10 0 10
create_box 1 simbox
create_atoms 1 box


mass 1 1.0
velocity all create ${temp} 87287

pair_style lj/cut 3.0
pair_coeff 1 1 1.0 1.0 3.0


fix 1 all nve

thermo_style custom step temp etotal pe ke
timestep 0.005

thermo 100
run 10000 #stabilize system

compute msd all msd

variable Nevery equal 1 # interval of timesteps inclusion
variable Nrepeat equal 1 # number of recent timesteps to include
variable Nfreq equal 1 # calculate averages every this many timesteps

fix output_etotal all ave/time ${Nevery} ${Nrepeat} ${Nfreq} c_msd[4] file ${outfile}
dump mydump all custom 10 1b.dump id type x y z vx vy vz







thermo 100
run 20000
