# 3d Lennard-Jones gas
units lj
dimension 3
boundary p p p
atom_style atomic

lattice fcc 1.2
region simbox block 0 10 0 10 0 10
create_box 1 simbox
create_atoms 1 box

mass 1 1.0
velocity all create 1.0 87287

pair_style lj/cut 3.0
pair_coeff 1 1 1.0 1.0 3.0

fix 1 all nve
timestep 0.005


#Stabilze system
thermo 100
run 3000

#Run stabilized system
dump 1 all custom 10 g.data id type x y z vx vy vz
run 3000


#Rerun from dump file with changed cutoff

pair_style lj/cut 5.0
pair_coeff 1 1 1.0 1.0 5.0
compute myRDF all rdf 200 cutoff 5.0


variable Nevery equal 1 #interval of timesteps inclusion
variable Nrepeat equal 1  #number of times to include timesteps from interval
variable Nfreq equal 10000 #calculate averages every this many timesteps

fix output_rdf all ave/time ${Nevery} ${Nrepeat} ${Nfreq} c_myRDF[*] file m_rdf_${myTemp}.txt mode vector

rerun g.data dump x y z vx vy vz
